\Problem name: Modelo Montagem de Elenco

Minimize
OBJROW: -3.16000 y(0,0) -1.37000 y(0,1) -4.86000 y(0,2) -2.48000 y(0,3) -7.28000 y(0,4) -4.14000 y(0,5) -4.86000 y(0,6) -4.71000 y(0,7) -6.88000 y(0,8) -2.59000 y(0,9)
 -4.94000 y(0,10) -5.84000 y(0,11) -4.77000 y(0,12) -2.35000 y(0,13) -4.40000 y(0,14) -5.17000 y(0,15) -3.66000 y(0,16) -3.65000 y(0,17) -4.54000 y(0,18) -4.77000 y(0,19)
 -4 y(0,20) -2.21000 y(0,21) -2.12000 y(0,22) -3.65000 y(0,23) -5.64000 y(0,24) -4.46000 y(0,25) -2.98000 y(0,26) -3.16000 y(1,0) -1.37000 y(1,1) -4.86000 y(1,2)
 -2.48000 y(1,3) -7.28000 y(1,4) -4.14000 y(1,5) -4.86000 y(1,6) -4.71000 y(1,7) -6.88000 y(1,8) -2.59000 y(1,9) -4.94000 y(1,10) -5.84000 y(1,11) -4.77000 y(1,12)
 -2.35000 y(1,13) -4.40000 y(1,14) -5.17000 y(1,15) -3.66000 y(1,16) -3.65000 y(1,17) -4.54000 y(1,18) -4.77000 y(1,19) -4 y(1,20) -2.21000 y(1,21) -2.12000 y(1,22)
 -3.65000 y(1,23) -5.64000 y(1,24) -4.46000 y(1,25) -2.98000 y(1,26) -3.16000 y(2,0) -1.37000 y(2,1) -4.86000 y(2,2) -2.48000 y(2,3) -7.28000 y(2,4) -4.14000 y(2,5)
 -4.86000 y(2,6) -4.71000 y(2,7) -6.88000 y(2,8) -2.59000 y(2,9) -4.94000 y(2,10) -5.84000 y(2,11) -4.77000 y(2,12) -2.35000 y(2,13) -4.40000 y(2,14) -5.17000 y(2,15)
 -3.66000 y(2,16) -3.65000 y(2,17) -4.54000 y(2,18) -4.77000 y(2,19) -4 y(2,20) -2.21000 y(2,21) -2.12000 y(2,22) -3.65000 y(2,23) -5.64000 y(2,24) -4.46000 y(2,25)
 -2.98000 y(2,26) -3.16000 y(3,0) -1.37000 y(3,1) -4.86000 y(3,2) -2.48000 y(3,3) -7.28000 y(3,4) -4.14000 y(3,5) -4.86000 y(3,6) -4.71000 y(3,7) -6.88000 y(3,8)
 -2.59000 y(3,9) -4.94000 y(3,10) -5.84000 y(3,11) -4.77000 y(3,12) -2.35000 y(3,13) -4.40000 y(3,14) -5.17000 y(3,15) -3.66000 y(3,16) -3.65000 y(3,17) -4.54000 y(3,18)
 -4.77000 y(3,19) -4 y(3,20) -2.21000 y(3,21) -2.12000 y(3,22) -3.65000 y(3,23) -5.64000 y(3,24) -4.46000 y(3,25) -2.98000 y(3,26) -3.16000 y(4,0) -1.37000 y(4,1)
 -4.86000 y(4,2) -2.48000 y(4,3) -7.28000 y(4,4) -4.14000 y(4,5) -4.86000 y(4,6) -4.71000 y(4,7) -6.88000 y(4,8) -2.59000 y(4,9) -4.94000 y(4,10) -5.84000 y(4,11)
 -4.77000 y(4,12) -2.35000 y(4,13) -4.40000 y(4,14) -5.17000 y(4,15) -3.66000 y(4,16) -3.65000 y(4,17) -4.54000 y(4,18) -4.77000 y(4,19) -4 y(4,20) -2.21000 y(4,21)
 -2.12000 y(4,22) -3.65000 y(4,23) -5.64000 y(4,24) -4.46000 y(4,25) -2.98000 y(4,26) -3.16000 y(5,0) -1.37000 y(5,1) -4.86000 y(5,2) -2.48000 y(5,3) -7.28000 y(5,4)
 -4.14000 y(5,5) -4.86000 y(5,6) -4.71000 y(5,7) -6.88000 y(5,8) -2.59000 y(5,9) -4.94000 y(5,10) -5.84000 y(5,11) -4.77000 y(5,12) -2.35000 y(5,13) -4.40000 y(5,14)
 -5.17000 y(5,15) -3.66000 y(5,16) -3.65000 y(5,17) -4.54000 y(5,18) -4.77000 y(5,19) -4 y(5,20) -2.21000 y(5,21) -2.12000 y(5,22) -3.65000 y(5,23) -5.64000 y(5,24)
 -4.46000 y(5,25) -2.98000 y(5,26)
Subject To
restricao3.6_0:  y(0,0) + y(1,0) + y(2,0) + y(3,0) + y(4,0) + y(5,0) <= 1
restricao3.6_1:  y(0,1) + y(1,1) + y(2,1) + y(3,1) + y(4,1) + y(5,1) <= 1
restricao3.6_2:  y(0,2) + y(1,2) + y(2,2) + y(3,2) + y(4,2) + y(5,2) <= 1
restricao3.6_3:  y(0,3) + y(1,3) + y(2,3) + y(3,3) + y(4,3) + y(5,3) <= 1
restricao3.6_4:  y(0,4) + y(1,4) + y(2,4) + y(3,4) + y(4,4) + y(5,4) <= 1
restricao3.6_5:  y(0,5) + y(1,5) + y(2,5) + y(3,5) + y(4,5) + y(5,5) <= 1
restricao3.6_6:  y(0,6) + y(1,6) + y(2,6) + y(3,6) + y(4,6) + y(5,6) <= 1
restricao3.6_7:  y(0,7) + y(1,7) + y(2,7) + y(3,7) + y(4,7) + y(5,7) <= 1
restricao3.6_8:  y(0,8) + y(1,8) + y(2,8) + y(3,8) + y(4,8) + y(5,8) <= 1
restricao3.6_9:  y(0,9) + y(1,9) + y(2,9) + y(3,9) + y(4,9) + y(5,9) <= 1
restricao3.6_10:  y(0,10) + y(1,10) + y(2,10) + y(3,10) + y(4,10) + y(5,10) <= 1
restricao3.6_11:  y(0,11) + y(1,11) + y(2,11) + y(3,11) + y(4,11) + y(5,11) <= 1
restricao3.6_12:  y(0,12) + y(1,12) + y(2,12) + y(3,12) + y(4,12) + y(5,12) <= 1
restricao3.6_13:  y(0,13) + y(1,13) + y(2,13) + y(3,13) + y(4,13) + y(5,13) <= 1
restricao3.6_14:  y(0,14) + y(1,14) + y(2,14) + y(3,14) + y(4,14) + y(5,14) <= 1
restricao3.6_15:  y(0,15) + y(1,15) + y(2,15) + y(3,15) + y(4,15) + y(5,15) <= 1
restricao3.6_16:  y(0,16) + y(1,16) + y(2,16) + y(3,16) + y(4,16) + y(5,16) <= 1
restricao3.6_17:  y(0,17) + y(1,17) + y(2,17) + y(3,17) + y(4,17) + y(5,17) <= 1
restricao3.6_18:  y(0,18) + y(1,18) + y(2,18) + y(3,18) + y(4,18) + y(5,18) <= 1
restricao3.6_19:  y(0,19) + y(1,19) + y(2,19) + y(3,19) + y(4,19) + y(5,19) <= 1
restricao3.6_20:  y(0,20) + y(1,20) + y(2,20) + y(3,20) + y(4,20) + y(5,20) <= 1
restricao3.6_21:  y(0,21) + y(1,21) + y(2,21) + y(3,21) + y(4,21) + y(5,21) <= 1
restricao3.6_22:  y(0,22) + y(1,22) + y(2,22) + y(3,22) + y(4,22) + y(5,22) <= 1
restricao3.6_23:  y(0,23) + y(1,23) + y(2,23) + y(3,23) + y(4,23) + y(5,23) <= 1
restricao3.6_24:  y(0,24) + y(1,24) + y(2,24) + y(3,24) + y(4,24) + y(5,24) <= 1
restricao3.6_25:  y(0,25) + y(1,25) + y(2,25) + y(3,25) + y(4,25) + y(5,25) <= 1
restricao3.6_26:  y(0,26) + y(1,26) + y(2,26) + y(3,26) + y(4,26) + y(5,26) <= 1
restricao_12jogadores:  y(0,0) + y(0,1) + y(0,2) + y(0,3) + y(0,4) + y(0,5) + y(0,6) + y(0,7) + y(0,8) + y(0,9)
 + y(0,10) + y(0,11) + y(0,12) + y(0,13) + y(0,14) + y(0,15) + y(0,16) + y(0,17) + y(0,18) + y(0,19)
 + y(0,20) + y(0,21) + y(0,22) + y(0,23) + y(0,24) + y(0,25) + y(0,26) + y(1,0) + y(1,1) + y(1,2)
 + y(1,3) + y(1,4) + y(1,5) + y(1,6) + y(1,7) + y(1,8) + y(1,9) + y(1,10) + y(1,11) + y(1,12)
 + y(1,13) + y(1,14) + y(1,15) + y(1,16) + y(1,17) + y(1,18) + y(1,19) + y(1,20) + y(1,21) + y(1,22)
 + y(1,23) + y(1,24) + y(1,25) + y(1,26) + y(2,0) + y(2,1) + y(2,2) + y(2,3) + y(2,4) + y(2,5)
 + y(2,6) + y(2,7) + y(2,8) + y(2,9) + y(2,10) + y(2,11) + y(2,12) + y(2,13) + y(2,14) + y(2,15)
 + y(2,16) + y(2,17) + y(2,18) + y(2,19) + y(2,20) + y(2,21) + y(2,22) + y(2,23) + y(2,24) + y(2,25)
 + y(2,26) + y(3,0) + y(3,1) + y(3,2) + y(3,3) + y(3,4) + y(3,5) + y(3,6) + y(3,7) + y(3,8)
 + y(3,9) + y(3,10) + y(3,11) + y(3,12) + y(3,13) + y(3,14) + y(3,15) + y(3,16) + y(3,17) + y(3,18)
 + y(3,19) + y(3,20) + y(3,21) + y(3,22) + y(3,23) + y(3,24) + y(3,25) + y(3,26) + y(4,0) + y(4,1)
 + y(4,2) + y(4,3) + y(4,4) + y(4,5) + y(4,6) + y(4,7) + y(4,8) + y(4,9) + y(4,10) + y(4,11)
 + y(4,12) + y(4,13) + y(4,14) + y(4,15) + y(4,16) + y(4,17) + y(4,18) + y(4,19) + y(4,20) + y(4,21)
 + y(4,22) + y(4,23) + y(4,24) + y(4,25) + y(4,26) + y(5,0) + y(5,1) + y(5,2) + y(5,3) + y(5,4)
 + y(5,5) + y(5,6) + y(5,7) + y(5,8) + y(5,9) + y(5,10) + y(5,11) + y(5,12) + y(5,13) + y(5,14)
 + y(5,15) + y(5,16) + y(5,17) + y(5,18) + y(5,19) + y(5,20) + y(5,21) + y(5,22) + y(5,23) + y(5,24)
 + y(5,25) + y(5,26) = 12
restricao3.5_0:  y(0,0) + y(0,1) + y(0,2) + y(0,3) + y(0,4) = 2
restricao3.5_1:  y(1,5) + y(1,6) + y(1,7) + y(1,8) = 1
restricao3.5_2:  y(2,9) + y(2,10) + y(2,11) + y(2,12) = 2
restricao3.5_3:  y(3,13) + y(3,14) + y(3,15) = 4
restricao3.5_4:  y(4,16) + y(4,17) + y(4,18) + y(4,19) + y(4,20) = 1
restricao3.5_5:  y(5,21) + y(5,22) + y(5,23) + y(5,24) + y(5,25) + y(5,26) = 2
restricao3.3_5:  13.05000 y(0,0) + 9.05000 y(0,1) + 17.06000 y(0,2) + 9.28000 y(0,3) + 18.38000 y(0,4) + 11.66000 y(0,5) + 9.65000 y(0,6) + 11.97000 y(0,7) + 14.56000 y(0,8) + 9.57000 y(0,9)
 + 12.34000 y(0,10) + 14.24000 y(0,11) + 13.62000 y(0,12) + 6.18000 y(0,13) + 11.26000 y(0,14) + 11.99000 y(0,15) + 10.06000 y(0,16) + 9.75000 y(0,17) + 12.73000 y(0,18) + 13.83000 y(0,19)
 + 11.88000 y(0,20) + 6.31000 y(0,21) + 5.60000 y(0,22) + 10.18000 y(0,23) + 12.45000 y(0,24) + 8.69000 y(0,25) + 6.94000 y(0,26) + 13.05000 y(1,0) + 9.05000 y(1,1) + 17.06000 y(1,2)
 + 9.28000 y(1,3) + 18.38000 y(1,4) + 11.66000 y(1,5) + 9.65000 y(1,6) + 11.97000 y(1,7) + 14.56000 y(1,8) + 9.57000 y(1,9) + 12.34000 y(1,10) + 14.24000 y(1,11) + 13.62000 y(1,12)
 + 6.18000 y(1,13) + 11.26000 y(1,14) + 11.99000 y(1,15) + 10.06000 y(1,16) + 9.75000 y(1,17) + 12.73000 y(1,18) + 13.83000 y(1,19) + 11.88000 y(1,20) + 6.31000 y(1,21) + 5.60000 y(1,22)
 + 10.18000 y(1,23) + 12.45000 y(1,24) + 8.69000 y(1,25) + 6.94000 y(1,26) + 13.05000 y(2,0) + 9.05000 y(2,1) + 17.06000 y(2,2) + 9.28000 y(2,3) + 18.38000 y(2,4) + 11.66000 y(2,5)
 + 9.65000 y(2,6) + 11.97000 y(2,7) + 14.56000 y(2,8) + 9.57000 y(2,9) + 12.34000 y(2,10) + 14.24000 y(2,11) + 13.62000 y(2,12) + 6.18000 y(2,13) + 11.26000 y(2,14) + 11.99000 y(2,15)
 + 10.06000 y(2,16) + 9.75000 y(2,17) + 12.73000 y(2,18) + 13.83000 y(2,19) + 11.88000 y(2,20) + 6.31000 y(2,21) + 5.60000 y(2,22) + 10.18000 y(2,23) + 12.45000 y(2,24) + 8.69000 y(2,25)
 + 6.94000 y(2,26) + 13.05000 y(3,0) + 9.05000 y(3,1) + 17.06000 y(3,2) + 9.28000 y(3,3) + 18.38000 y(3,4) + 11.66000 y(3,5) + 9.65000 y(3,6) + 11.97000 y(3,7) + 14.56000 y(3,8)
 + 9.57000 y(3,9) + 12.34000 y(3,10) + 14.24000 y(3,11) + 13.62000 y(3,12) + 6.18000 y(3,13) + 11.26000 y(3,14) + 11.99000 y(3,15) + 10.06000 y(3,16) + 9.75000 y(3,17) + 12.73000 y(3,18)
 + 13.83000 y(3,19) + 11.88000 y(3,20) + 6.31000 y(3,21) + 5.60000 y(3,22) + 10.18000 y(3,23) + 12.45000 y(3,24) + 8.69000 y(3,25) + 6.94000 y(3,26) + 13.05000 y(4,0) + 9.05000 y(4,1)
 + 17.06000 y(4,2) + 9.28000 y(4,3) + 18.38000 y(4,4) + 11.66000 y(4,5) + 9.65000 y(4,6) + 11.97000 y(4,7) + 14.56000 y(4,8) + 9.57000 y(4,9) + 12.34000 y(4,10) + 14.24000 y(4,11)
 + 13.62000 y(4,12) + 6.18000 y(4,13) + 11.26000 y(4,14) + 11.99000 y(4,15) + 10.06000 y(4,16) + 9.75000 y(4,17) + 12.73000 y(4,18) + 13.83000 y(4,19) + 11.88000 y(4,20) + 6.31000 y(4,21)
 + 5.60000 y(4,22) + 10.18000 y(4,23) + 12.45000 y(4,24) + 8.69000 y(4,25) + 6.94000 y(4,26) + 13.05000 y(5,0) + 9.05000 y(5,1) + 17.06000 y(5,2) + 9.28000 y(5,3) + 18.38000 y(5,4)
 + 11.66000 y(5,5) + 9.65000 y(5,6) + 11.97000 y(5,7) + 14.56000 y(5,8) + 9.57000 y(5,9) + 12.34000 y(5,10) + 14.24000 y(5,11) + 13.62000 y(5,12) + 6.18000 y(5,13) + 11.26000 y(5,14)
 + 11.99000 y(5,15) + 10.06000 y(5,16) + 9.75000 y(5,17) + 12.73000 y(5,18) + 13.83000 y(5,19) + 11.88000 y(5,20) + 6.31000 y(5,21) + 5.60000 y(5,22) + 10.18000 y(5,23) + 12.45000 y(5,24)
 + 8.69000 y(5,25) + 6.94000 y(5,26) <= 140.03000
Bounds
 0 <= y(0,0) <= 1
 0 <= y(0,1) <= 1
 0 <= y(0,2) <= 1
 0 <= y(0,3) <= 1
 0 <= y(0,4) <= 1
 0 <= y(0,5) <= 1
 0 <= y(0,6) <= 1
 0 <= y(0,7) <= 1
 0 <= y(0,8) <= 1
 0 <= y(0,9) <= 1
 0 <= y(0,10) <= 1
 0 <= y(0,11) <= 1
 0 <= y(0,12) <= 1
 0 <= y(0,13) <= 1
 0 <= y(0,14) <= 1
 0 <= y(0,15) <= 1
 0 <= y(0,16) <= 1
 0 <= y(0,17) <= 1
 0 <= y(0,18) <= 1
 0 <= y(0,19) <= 1
 0 <= y(0,20) <= 1
 0 <= y(0,21) <= 1
 0 <= y(0,22) <= 1
 0 <= y(0,23) <= 1
 0 <= y(0,24) <= 1
 0 <= y(0,25) <= 1
 0 <= y(0,26) <= 1
 0 <= y(1,0) <= 1
 0 <= y(1,1) <= 1
 0 <= y(1,2) <= 1
 0 <= y(1,3) <= 1
 0 <= y(1,4) <= 1
 0 <= y(1,5) <= 1
 0 <= y(1,6) <= 1
 0 <= y(1,7) <= 1
 0 <= y(1,8) <= 1
 0 <= y(1,9) <= 1
 0 <= y(1,10) <= 1
 0 <= y(1,11) <= 1
 0 <= y(1,12) <= 1
 0 <= y(1,13) <= 1
 0 <= y(1,14) <= 1
 0 <= y(1,15) <= 1
 0 <= y(1,16) <= 1
 0 <= y(1,17) <= 1
 0 <= y(1,18) <= 1
 0 <= y(1,19) <= 1
 0 <= y(1,20) <= 1
 0 <= y(1,21) <= 1
 0 <= y(1,22) <= 1
 0 <= y(1,23) <= 1
 0 <= y(1,24) <= 1
 0 <= y(1,25) <= 1
 0 <= y(1,26) <= 1
 0 <= y(2,0) <= 1
 0 <= y(2,1) <= 1
 0 <= y(2,2) <= 1
 0 <= y(2,3) <= 1
 0 <= y(2,4) <= 1
 0 <= y(2,5) <= 1
 0 <= y(2,6) <= 1
 0 <= y(2,7) <= 1
 0 <= y(2,8) <= 1
 0 <= y(2,9) <= 1
 0 <= y(2,10) <= 1
 0 <= y(2,11) <= 1
 0 <= y(2,12) <= 1
 0 <= y(2,13) <= 1
 0 <= y(2,14) <= 1
 0 <= y(2,15) <= 1
 0 <= y(2,16) <= 1
 0 <= y(2,17) <= 1
 0 <= y(2,18) <= 1
 0 <= y(2,19) <= 1
 0 <= y(2,20) <= 1
 0 <= y(2,21) <= 1
 0 <= y(2,22) <= 1
 0 <= y(2,23) <= 1
 0 <= y(2,24) <= 1
 0 <= y(2,25) <= 1
 0 <= y(2,26) <= 1
 0 <= y(3,0) <= 1
 0 <= y(3,1) <= 1
 0 <= y(3,2) <= 1
 0 <= y(3,3) <= 1
 0 <= y(3,4) <= 1
 0 <= y(3,5) <= 1
 0 <= y(3,6) <= 1
 0 <= y(3,7) <= 1
 0 <= y(3,8) <= 1
 0 <= y(3,9) <= 1
 0 <= y(3,10) <= 1
 0 <= y(3,11) <= 1
 0 <= y(3,12) <= 1
 0 <= y(3,13) <= 1
 0 <= y(3,14) <= 1
 0 <= y(3,15) <= 1
 0 <= y(3,16) <= 1
 0 <= y(3,17) <= 1
 0 <= y(3,18) <= 1
 0 <= y(3,19) <= 1
 0 <= y(3,20) <= 1
 0 <= y(3,21) <= 1
 0 <= y(3,22) <= 1
 0 <= y(3,23) <= 1
 0 <= y(3,24) <= 1
 0 <= y(3,25) <= 1
 0 <= y(3,26) <= 1
 0 <= y(4,0) <= 1
 0 <= y(4,1) <= 1
 0 <= y(4,2) <= 1
 0 <= y(4,3) <= 1
 0 <= y(4,4) <= 1
 0 <= y(4,5) <= 1
 0 <= y(4,6) <= 1
 0 <= y(4,7) <= 1
 0 <= y(4,8) <= 1
 0 <= y(4,9) <= 1
 0 <= y(4,10) <= 1
 0 <= y(4,11) <= 1
 0 <= y(4,12) <= 1
 0 <= y(4,13) <= 1
 0 <= y(4,14) <= 1
 0 <= y(4,15) <= 1
 0 <= y(4,16) <= 1
 0 <= y(4,17) <= 1
 0 <= y(4,18) <= 1
 0 <= y(4,19) <= 1
 0 <= y(4,20) <= 1
 0 <= y(4,21) <= 1
 0 <= y(4,22) <= 1
 0 <= y(4,23) <= 1
 0 <= y(4,24) <= 1
 0 <= y(4,25) <= 1
 0 <= y(4,26) <= 1
 0 <= y(5,0) <= 1
 0 <= y(5,1) <= 1
 0 <= y(5,2) <= 1
 0 <= y(5,3) <= 1
 0 <= y(5,4) <= 1
 0 <= y(5,5) <= 1
 0 <= y(5,6) <= 1
 0 <= y(5,7) <= 1
 0 <= y(5,8) <= 1
 0 <= y(5,9) <= 1
 0 <= y(5,10) <= 1
 0 <= y(5,11) <= 1
 0 <= y(5,12) <= 1
 0 <= y(5,13) <= 1
 0 <= y(5,14) <= 1
 0 <= y(5,15) <= 1
 0 <= y(5,16) <= 1
 0 <= y(5,17) <= 1
 0 <= y(5,18) <= 1
 0 <= y(5,19) <= 1
 0 <= y(5,20) <= 1
 0 <= y(5,21) <= 1
 0 <= y(5,22) <= 1
 0 <= y(5,23) <= 1
 0 <= y(5,24) <= 1
 0 <= y(5,25) <= 1
 0 <= y(5,26) <= 1
Integers
y(0,0) y(0,1) y(0,2) y(0,3) y(0,4) y(0,5) y(0,6) y(0,7) y(0,8) y(0,9) 
y(0,10) y(0,11) y(0,12) y(0,13) y(0,14) y(0,15) y(0,16) y(0,17) y(0,18) y(0,19) 
y(0,20) y(0,21) y(0,22) y(0,23) y(0,24) y(0,25) y(0,26) y(1,0) y(1,1) y(1,2) 
y(1,3) y(1,4) y(1,5) y(1,6) y(1,7) y(1,8) y(1,9) y(1,10) y(1,11) y(1,12) 
y(1,13) y(1,14) y(1,15) y(1,16) y(1,17) y(1,18) y(1,19) y(1,20) y(1,21) y(1,22) 
y(1,23) y(1,24) y(1,25) y(1,26) y(2,0) y(2,1) y(2,2) y(2,3) y(2,4) y(2,5) 
y(2,6) y(2,7) y(2,8) y(2,9) y(2,10) y(2,11) y(2,12) y(2,13) y(2,14) y(2,15) 
y(2,16) y(2,17) y(2,18) y(2,19) y(2,20) y(2,21) y(2,22) y(2,23) y(2,24) y(2,25) 
y(2,26) y(3,0) y(3,1) y(3,2) y(3,3) y(3,4) y(3,5) y(3,6) y(3,7) y(3,8) 
y(3,9) y(3,10) y(3,11) y(3,12) y(3,13) y(3,14) y(3,15) y(3,16) y(3,17) y(3,18) 
y(3,19) y(3,20) y(3,21) y(3,22) y(3,23) y(3,24) y(3,25) y(3,26) y(4,0) y(4,1) 
y(4,2) y(4,3) y(4,4) y(4,5) y(4,6) y(4,7) y(4,8) y(4,9) y(4,10) y(4,11) 
y(4,12) y(4,13) y(4,14) y(4,15) y(4,16) y(4,17) y(4,18) y(4,19) y(4,20) y(4,21) 
y(4,22) y(4,23) y(4,24) y(4,25) y(4,26) y(5,0) y(5,1) y(5,2) y(5,3) y(5,4) 
y(5,5) y(5,6) y(5,7) y(5,8) y(5,9) y(5,10) y(5,11) y(5,12) y(5,13) y(5,14) 
y(5,15) y(5,16) y(5,17) y(5,18) y(5,19) y(5,20) y(5,21) y(5,22) y(5,23) y(5,24) 
y(5,25) y(5,26) 
End
